[WorldDrop]	Terrain_World	DungeonID	Terrain_Mob	ItemKind	ItemOpt	DropRate	MinLv	MaxLv	Group	MaxDropCnt	OptPoolIdx	DurationIdx	DropSvrCh	EventDropOnly		
0	1	0	0	3050	129	1	1	200	0	0	0	0	0	0
0	1	0	0	3050	129	1	1	200	0	0	0	0	0	0
0	1	0	0	3050	129	1	1	200	0	0	0	0	0	0
0	1	0	0	3050	129	1	1	200	0	0	0	0	0	0
0	1	0	0	3050	129	1	1	200	0	0	0	0	0	0
0	2	0	0	3051	129	1	1	200	0	0	0	0	0	0
0	2	0	0	3051	129	1	1	200	0	0	0	0	0	0
0	2	0	0	3051	129	1	1	200	0	0	0	0	0	0
0	2	0	0	3051	129	1	1	200	0	0	0	0	0	0
0	2	0	0	3051	129	1	1	200	0	0	0	0	0	0
0	3	0	0	3052	129	1	1	200	0	0	0	0	0	0
0	3	0	0	3052	129	1	1	200	0	0	0	0	0	0
0	3	0	0	3052	129	1	1	200	0	0	0	0	0	0
0	3	0	0	3052	129	1	1	200	0	0	0	0	0	0
0	3	0	0	3052	129	1	1	200	0	0	0	0	0	0
0	4	0	0	3053	129	1	1	200	0	0	0	0	0	0
0	4	0	0	3053	129	1	1	200	0	0	0	0	0	0
0	4	0	0	3053	129	1	1	200	0	0	0	0	0	0
0	4	0	0	3053	129	1	1	200	0	0	0	0	0	0
0	4	0	0	3053	129	1	1	200	0	0	0	0	0	0
0	5	0	0	3054	129	1	1	200	0	0	0	0	0	0
0	5	0	0	3054	129	1	1	200	0	0	0	0	0	0
0	5	0	0	3054	129	1	1	200	0	0	0	0	0	0
0	5	0	0	3054	129	1	1	200	0	0	0	0	0	0
0	5	0	0	3054	129	1	1	200	0	0	0	0	0	0
0	6	0	0	3057	129	1	1	200	0	0	0	0	0	0
0	6	0	0	3057	129	1	1	200	0	0	0	0	0	0
0	6	0	0	3057	129	1	1	200	0	0	0	0	0	0
0	6	0	0	3057	129	1	1	200	0	0	0	0	0	0
0	6	0	0	3057	129	1	1	200	0	0	0	0	0	0
0	7	0	0	3055	129	1	1	200	0	0	0	0	0	0
0	7	0	0	3055	129	1	1	200	0	0	0	0	0	0
0	7	0	0	3055	129	1	1	200	0	0	0	0	0	0
0	7	0	0	3055	129	1	1	200	0	0	0	0	0	0
0	7	0	0	3055	129	1	1	200	0	0	0	0	0	0
0	8	0	0	3056	129	1	1	200	0	0	0	0	0	0
0	8	0	0	3056	129	1	1	200	0	0	0	0	0	0
0	8	0	0	3056	129	1	1	200	0	0	0	0	0	0
0	8	0	0	3056	129	1	1	200	0	0	0	0	0	0
0	8	0	0	3056	129	1	1	200	0	0	0	0	0	0
0	9	0	0	3058	129	1	1	200	0	0	0	0	0	0
0	9	0	0	3058	129	1	1	200	0	0	0	0	0	0
0	9	0	0	3058	129	1	1	200	0	0	0	0	0	0
0	9	0	0	3058	129	1	1	200	0	0	0	0	0	0
0	9	0	0	3058	129	1	1	200	0	0	0	0	0	0
0	10	0	0	3059	129	1	1	200	0	0	0	0	0	0
0	10	0	0	3059	129	1	1	200	0	0	0	0	0	0
0	10	0	0	3059	129	1	1	200	0	0	0	0	0	0
0	10	0	0	3059	129	1	1	200	0	0	0	0	0	0
0	10	0	0	3059	129	1	1	200	0	0	0	0	0	0
0	11	0	0	3060	129	1	1	200	0	0	0	0	0	0
0	11	0	0	3060	129	1	1	200	0	0	0	0	0	0
0	11	0	0	3060	129	1	1	200	0	0	0	0	0	0
0	11	0	0	3060	129	1	1	200	0	0	0	0	0	0
0	11	0	0	3060	129	1	1	200	0	0	0	0	0	0
0	12	0	0	3061	129	1	1	200	0	0	0	0	0	0
0	12	0	0	3061	129	1	1	200	0	0	0	0	0	0
0	12	0	0	3061	129	1	1	200	0	0	0	0	0	0
0	12	0	0	3061	129	1	1	200	0	0	0	0	0	0
0	12	0	0	3061	129	1	1	200	0	0	0	0	0	0
0	17	0	0	3062	129	1	1	200	0	0	0	0	0	0
0	17	0	0	3062	129	1	1	200	0	0	0	0	0	0
0	17	0	0	3062	129	1	1	200	0	0	0	0	0	0
0	17	0	0	3062	129	1	1	200	0	0	0	0	0	0
0	1	0	0	1613	0	0.2	1	200	0	0	20	0	0	0
0	1	0	0	1614	0	0.2	1	200	0	0	20	0	0	0
0	1	0	0	1615	0	0.2	1	200	0	0	20	0	0	0
0	1	0	0	1616	0	0.2	1	200	0	0	20	0	0	0
0	1	0	0	1617	0	0.2	1	200	0	0	20	0	0	0
0	1	0	0	1618	0	0.2	1	200	0	0	20	0	0	0
0	1	0	0	1633	0	0.2	1	200	0	0	20	0	0	0
0	1	0	0	1634	0	0.2	1	200	0	0	20	0	0	0
0	1	0	0	1635	0	0.2	1	200	0	0	20	0	0	0
0	1	0	0	1636	0	0.2	1	200	0	0	20	0	0	0
0	1	0	0	1637	0	0.2	1	200	0	0	20	0	0	0
0	1	0	0	1638	0	0.2	1	200	0	0	20	0	0	0
0	1	0	0	1639	0	0.2	1	200	0	0	20	0	0	0
0	1	0	0	1640	0	0.2	1	200	0	0	20	0	0	0
0	1	0	0	1641	0	0.2	1	200	0	0	20	0	0	0
0	1	0	0	1642	0	0.2	1	200	0	0	20	0	0	0
0	1	0	0	1643	0	0.2	1	200	0	0	20	0	0	0
0	1	0	0	1644	0	0.2	1	200	0	0	20	0	0	0
0	1	0	0	1645	0	0.2	1	200	0	0	20	0	0	0
0	1	0	0	1646	0	0.2	1	200	0	0	20	0	0	0
0	1	0	0	1647	0	0.2	1	200	0	0	20	0	0	0
0	1	0	0	1648	0	0.2	1	200	0	0	20	0	0	0
0	1	0	0	1649	0	0.2	1	200	0	0	20	0	0	0
0	1	0	0	1650	0	0.2	1	200	0	0	20	0	0	0
0	1	0	0	1651	0	0.2	1	200	0	0	20	0	0	0
0	1	0	0	1652	0	0.2	1	200	0	0	20	0	0	0
0	1	0	0	1653	0	0.2	1	200	0	0	20	0	0	0
0	1	0	0	1654	0	0.2	1	200	0	0	20	0	0	0
0	1	0	0	1655	0	0.2	1	200	0	0	20	0	0	0
0	1	0	0	1656	0	0.2	1	200	0	0	20	0	0	0
0	1	0	0	1379	1	0.2	1	200	0	0	0	0	0	0
0	1	0	0	1599	0	0.1	1	200	0	0	0	0	0	0
0	2	0	0	1613	0	0.2	1	200	0	0	20	0	0	0
0	2	0	0	1614	0	0.2	1	200	0	0	20	0	0	0
0	2	0	0	1615	0	0.2	1	200	0	0	20	0	0	0
0	2	0	0	1616	0	0.2	1	200	0	0	20	0	0	0
0	2	0	0	1617	0	0.2	1	200	0	0	20	0	0	0
0	2	0	0	1618	0	0.2	1	200	0	0	20	0	0	0
0	2	0	0	1633	0	0.2	1	200	0	0	20	0	0	0
0	2	0	0	1634	0	0.2	1	200	0	0	20	0	0	0
0	2	0	0	1635	0	0.2	1	200	0	0	20	0	0	0
0	2	0	0	1636	0	0.2	1	200	0	0	20	0	0	0
0	2	0	0	1637	0	0.2	1	200	0	0	20	0	0	0
0	2	0	0	1638	0	0.2	1	200	0	0	20	0	0	0
0	2	0	0	1639	0	0.2	1	200	0	0	20	0	0	0
0	2	0	0	1640	0	0.2	1	200	0	0	20	0	0	0
0	2	0	0	1641	0	0.2	1	200	0	0	20	0	0	0
0	2	0	0	1642	0	0.2	1	200	0	0	20	0	0	0
0	2	0	0	1643	0	0.2	1	200	0	0	20	0	0	0
0	2	0	0	1644	0	0.2	1	200	0	0	20	0	0	0
0	2	0	0	1645	0	0.2	1	200	0	0	20	0	0	0
0	2	0	0	1646	0	0.2	1	200	0	0	20	0	0	0
0	2	0	0	1647	0	0.2	1	200	0	0	20	0	0	0
0	2	0	0	1648	0	0.2	1	200	0	0	20	0	0	0
0	2	0	0	1649	0	0.2	1	200	0	0	20	0	0	0
0	2	0	0	1650	0	0.2	1	200	0	0	20	0	0	0
0	2	0	0	1651	0	0.2	1	200	0	0	20	0	0	0
0	2	0	0	1652	0	0.2	1	200	0	0	20	0	0	0
0	2	0	0	1653	0	0.2	1	200	0	0	20	0	0	0
0	2	0	0	1654	0	0.2	1	200	0	0	20	0	0	0
0	2	0	0	1655	0	0.2	1	200	0	0	20	0	0	0
0	2	0	0	1656	0	0.2	1	200	0	0	20	0	0	0
0	2	0	0	1379	1	0.2	1	200	0	0	0	0	0	0
0	2	0	0	1599	0	0.1	1	200	0	0	0	0	0	0
0	3	0	0	1613	0	0.2	1	200	0	0	20	0	0	0
0	3	0	0	1614	0	0.2	1	200	0	0	20	0	0	0
0	3	0	0	1615	0	0.2	1	200	0	0	20	0	0	0
0	3	0	0	1616	0	0.2	1	200	0	0	20	0	0	0
0	3	0	0	1617	0	0.2	1	200	0	0	20	0	0	0
0	3	0	0	1618	0	0.2	1	200	0	0	20	0	0	0
0	3	0	0	1633	0	0.2	1	200	0	0	20	0	0	0
0	3	0	0	1634	0	0.2	1	200	0	0	20	0	0	0
0	3	0	0	1635	0	0.2	1	200	0	0	20	0	0	0
0	3	0	0	1636	0	0.2	1	200	0	0	20	0	0	0
0	3	0	0	1637	0	0.2	1	200	0	0	20	0	0	0
0	3	0	0	1638	0	0.2	1	200	0	0	20	0	0	0
0	3	0	0	1639	0	0.2	1	200	0	0	20	0	0	0
0	3	0	0	1640	0	0.2	1	200	0	0	20	0	0	0
0	3	0	0	1641	0	0.2	1	200	0	0	20	0	0	0
0	3	0	0	1642	0	0.2	1	200	0	0	20	0	0	0
0	3	0	0	1643	0	0.2	1	200	0	0	20	0	0	0
0	3	0	0	1644	0	0.2	1	200	0	0	20	0	0	0
0	3	0	0	1645	0	0.2	1	200	0	0	20	0	0	0
0	3	0	0	1646	0	0.2	1	200	0	0	20	0	0	0
0	3	0	0	1647	0	0.2	1	200	0	0	20	0	0	0
0	3	0	0	1648	0	0.2	1	200	0	0	20	0	0	0
0	3	0	0	1649	0	0.2	1	200	0	0	20	0	0	0
0	3	0	0	1650	0	0.2	1	200	0	0	20	0	0	0
0	3	0	0	1651	0	0.2	1	200	0	0	20	0	0	0
0	3	0	0	1652	0	0.2	1	200	0	0	20	0	0	0
0	3	0	0	1653	0	0.2	1	200	0	0	20	0	0	0
0	3	0	0	1654	0	0.2	1	200	0	0	20	0	0	0
0	3	0	0	1655	0	0.2	1	200	0	0	20	0	0	0
0	3	0	0	1656	0	0.2	1	200	0	0	20	0	0	0
0	3	0	0	1379	1	0.2	1	200	0	0	0	0	0	0
0	3	0	0	1599	0	0.1	1	200	0	0	0	0	0	0
0	4	0	0	1613	0	0.2	1	200	0	0	20	0	0	0
0	4	0	0	1614	0	0.2	1	200	0	0	20	0	0	0
0	4	0	0	1615	0	0.2	1	200	0	0	20	0	0	0
0	4	0	0	1616	0	0.2	1	200	0	0	20	0	0	0
0	4	0	0	1617	0	0.2	1	200	0	0	20	0	0	0
0	4	0	0	1618	0	0.2	1	200	0	0	20	0	0	0
0	4	0	0	1633	0	0.2	1	200	0	0	20	0	0	0
0	4	0	0	1634	0	0.2	1	200	0	0	20	0	0	0
0	4	0	0	1635	0	0.2	1	200	0	0	20	0	0	0
0	4	0	0	1636	0	0.2	1	200	0	0	20	0	0	0
0	4	0	0	1637	0	0.2	1	200	0	0	20	0	0	0
0	4	0	0	1638	0	0.2	1	200	0	0	20	0	0	0
0	4	0	0	1639	0	0.2	1	200	0	0	20	0	0	0
0	4	0	0	1640	0	0.2	1	200	0	0	20	0	0	0
0	4	0	0	1641	0	0.2	1	200	0	0	20	0	0	0
0	4	0	0	1642	0	0.2	1	200	0	0	20	0	0	0
0	4	0	0	1643	0	0.2	1	200	0	0	20	0	0	0
0	4	0	0	1644	0	0.2	1	200	0	0	20	0	0	0
0	4	0	0	1645	0	0.2	1	200	0	0	20	0	0	0
0	4	0	0	1646	0	0.2	1	200	0	0	20	0	0	0
0	4	0	0	1647	0	0.2	1	200	0	0	20	0	0	0
0	4	0	0	1648	0	0.2	1	200	0	0	20	0	0	0
0	4	0	0	1649	0	0.2	1	200	0	0	20	0	0	0
0	4	0	0	1650	0	0.2	1	200	0	0	20	0	0	0
0	4	0	0	1651	0	0.2	1	200	0	0	20	0	0	0
0	4	0	0	1652	0	0.2	1	200	0	0	20	0	0	0
0	4	0	0	1653	0	0.2	1	200	0	0	20	0	0	0
0	4	0	0	1654	0	0.2	1	200	0	0	20	0	0	0
0	4	0	0	1655	0	0.2	1	200	0	0	20	0	0	0
0	4	0	0	1656	0	0.2	1	200	0	0	20	0	0	0
0	4	0	0	1379	1	0.2	1	200	0	0	0	0	0	0
0	4	0	0	1599	0	0.1	1	200	0	0	0	0	0	0
0	5	0	0	1613	0	0.2	1	200	0	0	20	0	0	0
0	5	0	0	1614	0	0.2	1	200	0	0	20	0	0	0
0	5	0	0	1615	0	0.2	1	200	0	0	20	0	0	0
0	5	0	0	1616	0	0.2	1	200	0	0	20	0	0	0
0	5	0	0	1617	0	0.2	1	200	0	0	20	0	0	0
0	5	0	0	1618	0	0.2	1	200	0	0	20	0	0	0
0	5	0	0	1633	0	0.2	1	200	0	0	20	0	0	0
0	5	0	0	1634	0	0.2	1	200	0	0	20	0	0	0
0	5	0	0	1635	0	0.2	1	200	0	0	20	0	0	0
0	5	0	0	1636	0	0.2	1	200	0	0	20	0	0	0
0	5	0	0	1637	0	0.2	1	200	0	0	20	0	0	0
0	5	0	0	1638	0	0.2	1	200	0	0	20	0	0	0
0	5	0	0	1639	0	0.2	1	200	0	0	20	0	0	0
0	5	0	0	1640	0	0.2	1	200	0	0	20	0	0	0
0	5	0	0	1641	0	0.2	1	200	0	0	20	0	0	0
0	5	0	0	1642	0	0.2	1	200	0	0	20	0	0	0
0	5	0	0	1643	0	0.2	1	200	0	0	20	0	0	0
0	5	0	0	1644	0	0.2	1	200	0	0	20	0	0	0
0	5	0	0	1645	0	0.2	1	200	0	0	20	0	0	0
0	5	0	0	1646	0	0.2	1	200	0	0	20	0	0	0
0	5	0	0	1647	0	0.2	1	200	0	0	20	0	0	0
0	5	0	0	1648	0	0.2	1	200	0	0	20	0	0	0
0	5	0	0	1649	0	0.2	1	200	0	0	20	0	0	0
0	5	0	0	1650	0	0.2	1	200	0	0	20	0	0	0
0	5	0	0	1651	0	0.2	1	200	0	0	20	0	0	0
0	5	0	0	1652	0	0.2	1	200	0	0	20	0	0	0
0	5	0	0	1653	0	0.2	1	200	0	0	20	0	0	0
0	5	0	0	1654	0	0.2	1	200	0	0	20	0	0	0
0	5	0	0	1655	0	0.2	1	200	0	0	20	0	0	0
0	5	0	0	1656	0	0.2	1	200	0	0	20	0	0	0
0	5	0	0	1379	1	0.2	1	200	0	0	0	0	0	0
0	5	0	0	1599	0	0.1	1	200	0	0	0	0	0	0
0	6	0	0	1613	0	0.2	1	200	0	0	20	0	0	0
0	6	0	0	1614	0	0.2	1	200	0	0	20	0	0	0
0	6	0	0	1615	0	0.2	1	200	0	0	20	0	0	0
0	6	0	0	1616	0	0.2	1	200	0	0	20	0	0	0
0	6	0	0	1617	0	0.2	1	200	0	0	20	0	0	0
0	6	0	0	1618	0	0.2	1	200	0	0	20	0	0	0
0	6	0	0	1633	0	0.2	1	200	0	0	20	0	0	0
0	6	0	0	1634	0	0.2	1	200	0	0	20	0	0	0
0	6	0	0	1635	0	0.2	1	200	0	0	20	0	0	0
0	6	0	0	1636	0	0.2	1	200	0	0	20	0	0	0
0	6	0	0	1637	0	0.2	1	200	0	0	20	0	0	0
0	6	0	0	1638	0	0.2	1	200	0	0	20	0	0	0
0	6	0	0	1639	0	0.2	1	200	0	0	20	0	0	0
0	6	0	0	1640	0	0.2	1	200	0	0	20	0	0	0
0	6	0	0	1641	0	0.2	1	200	0	0	20	0	0	0
0	6	0	0	1642	0	0.2	1	200	0	0	20	0	0	0
0	6	0	0	1643	0	0.2	1	200	0	0	20	0	0	0
0	6	0	0	1644	0	0.2	1	200	0	0	20	0	0	0
0	6	0	0	1645	0	0.2	1	200	0	0	20	0	0	0
0	6	0	0	1646	0	0.2	1	200	0	0	20	0	0	0
0	6	0	0	1647	0	0.2	1	200	0	0	20	0	0	0
0	6	0	0	1648	0	0.2	1	200	0	0	20	0	0	0
0	6	0	0	1649	0	0.2	1	200	0	0	20	0	0	0
0	6	0	0	1650	0	0.2	1	200	0	0	20	0	0	0
0	6	0	0	1651	0	0.2	1	200	0	0	20	0	0	0
0	6	0	0	1652	0	0.2	1	200	0	0	20	0	0	0
0	6	0	0	1653	0	0.2	1	200	0	0	20	0	0	0
0	6	0	0	1654	0	0.2	1	200	0	0	20	0	0	0
0	6	0	0	1655	0	0.2	1	200	0	0	20	0	0	0
0	6	0	0	1656	0	0.2	1	200	0	0	20	0	0	0
0	6	0	0	1379	1	0.2	1	200	0	0	0	0	0	0
0	6	0	0	1599	0	0.1	1	200	0	0	0	0	0	0
0	7	0	0	1613	0	0.2	1	200	0	0	20	0	0	0
0	7	0	0	1614	0	0.2	1	200	0	0	20	0	0	0
0	7	0	0	1615	0	0.2	1	200	0	0	20	0	0	0
0	7	0	0	1616	0	0.2	1	200	0	0	20	0	0	0
0	7	0	0	1617	0	0.2	1	200	0	0	20	0	0	0
0	7	0	0	1618	0	0.2	1	200	0	0	20	0	0	0
0	7	0	0	1633	0	0.2	1	200	0	0	20	0	0	0
0	7	0	0	1634	0	0.2	1	200	0	0	20	0	0	0
0	7	0	0	1635	0	0.2	1	200	0	0	20	0	0	0
0	7	0	0	1636	0	0.2	1	200	0	0	20	0	0	0
0	7	0	0	1637	0	0.2	1	200	0	0	20	0	0	0
0	7	0	0	1638	0	0.2	1	200	0	0	20	0	0	0
0	7	0	0	1639	0	0.2	1	200	0	0	20	0	0	0
0	7	0	0	1640	0	0.2	1	200	0	0	20	0	0	0
0	7	0	0	1641	0	0.2	1	200	0	0	20	0	0	0
0	7	0	0	1642	0	0.2	1	200	0	0	20	0	0	0
0	7	0	0	1643	0	0.2	1	200	0	0	20	0	0	0
0	7	0	0	1644	0	0.2	1	200	0	0	20	0	0	0
0	7	0	0	1645	0	0.2	1	200	0	0	20	0	0	0
0	7	0	0	1646	0	0.2	1	200	0	0	20	0	0	0
0	7	0	0	1647	0	0.2	1	200	0	0	20	0	0	0
0	7	0	0	1648	0	0.2	1	200	0	0	20	0	0	0
0	7	0	0	1649	0	0.2	1	200	0	0	20	0	0	0
0	7	0	0	1650	0	0.2	1	200	0	0	20	0	0	0
0	7	0	0	1651	0	0.2	1	200	0	0	20	0	0	0
0	7	0	0	1652	0	0.2	1	200	0	0	20	0	0	0
0	7	0	0	1653	0	0.2	1	200	0	0	20	0	0	0
0	7	0	0	1654	0	0.2	1	200	0	0	20	0	0	0
0	7	0	0	1655	0	0.2	1	200	0	0	20	0	0	0
0	7	0	0	1656	0	0.2	1	200	0	0	20	0	0	0
0	7	0	0	1379	1	0.2	1	200	0	0	0	0	0	0
0	7	0	0	1599	0	0.1	1	200	0	0	0	0	0	0
0	8	0	0	1613	0	0.2	1	200	0	0	20	0	0	0
0	8	0	0	1614	0	0.2	1	200	0	0	20	0	0	0
0	8	0	0	1615	0	0.2	1	200	0	0	20	0	0	0
0	8	0	0	1616	0	0.2	1	200	0	0	20	0	0	0
0	8	0	0	1617	0	0.2	1	200	0	0	20	0	0	0
0	8	0	0	1618	0	0.2	1	200	0	0	20	0	0	0
0	8	0	0	1633	0	0.2	1	200	0	0	20	0	0	0
0	8	0	0	1634	0	0.2	1	200	0	0	20	0	0	0
0	8	0	0	1635	0	0.2	1	200	0	0	20	0	0	0
0	8	0	0	1636	0	0.2	1	200	0	0	20	0	0	0
0	8	0	0	1637	0	0.2	1	200	0	0	20	0	0	0
0	8	0	0	1638	0	0.2	1	200	0	0	20	0	0	0
0	8	0	0	1639	0	0.2	1	200	0	0	20	0	0	0
0	8	0	0	1640	0	0.2	1	200	0	0	20	0	0	0
0	8	0	0	1641	0	0.2	1	200	0	0	20	0	0	0
0	8	0	0	1642	0	0.2	1	200	0	0	20	0	0	0
0	8	0	0	1643	0	0.2	1	200	0	0	20	0	0	0
0	8	0	0	1644	0	0.2	1	200	0	0	20	0	0	0
0	8	0	0	1645	0	0.2	1	200	0	0	20	0	0	0
0	8	0	0	1646	0	0.2	1	200	0	0	20	0	0	0
0	8	0	0	1647	0	0.2	1	200	0	0	20	0	0	0
0	8	0	0	1648	0	0.2	1	200	0	0	20	0	0	0
0	8	0	0	1649	0	0.2	1	200	0	0	20	0	0	0
0	8	0	0	1650	0	0.2	1	200	0	0	20	0	0	0
0	8	0	0	1651	0	0.2	1	200	0	0	20	0	0	0
0	8	0	0	1652	0	0.2	1	200	0	0	20	0	0	0
0	8	0	0	1653	0	0.2	1	200	0	0	20	0	0	0
0	8	0	0	1654	0	0.2	1	200	0	0	20	0	0	0
0	8	0	0	1655	0	0.2	1	200	0	0	20	0	0	0
0	8	0	0	1656	0	0.2	1	200	0	0	20	0	0	0
0	8	0	0	1379	1	0.2	1	200	0	0	0	0	0	0
0	8	0	0	1599	0	0.1	1	200	0	0	0	0	0	0
0	9	0	0	1613	0	0.2	1	200	0	0	20	0	0	0
0	9	0	0	1614	0	0.2	1	200	0	0	20	0	0	0
0	9	0	0	1615	0	0.2	1	200	0	0	20	0	0	0
0	9	0	0	1616	0	0.2	1	200	0	0	20	0	0	0
0	9	0	0	1617	0	0.2	1	200	0	0	20	0	0	0
0	9	0	0	1618	0	0.2	1	200	0	0	20	0	0	0
0	9	0	0	1633	0	0.2	1	200	0	0	20	0	0	0
0	9	0	0	1634	0	0.2	1	200	0	0	20	0	0	0
0	9	0	0	1635	0	0.2	1	200	0	0	20	0	0	0
0	9	0	0	1636	0	0.2	1	200	0	0	20	0	0	0
0	9	0	0	1637	0	0.2	1	200	0	0	20	0	0	0
0	9	0	0	1638	0	0.2	1	200	0	0	20	0	0	0
0	9	0	0	1639	0	0.2	1	200	0	0	20	0	0	0
0	9	0	0	1640	0	0.2	1	200	0	0	20	0	0	0
0	9	0	0	1641	0	0.2	1	200	0	0	20	0	0	0
0	9	0	0	1642	0	0.2	1	200	0	0	20	0	0	0
0	9	0	0	1643	0	0.2	1	200	0	0	20	0	0	0
0	9	0	0	1644	0	0.2	1	200	0	0	20	0	0	0
0	9	0	0	1645	0	0.2	1	200	0	0	20	0	0	0
0	9	0	0	1646	0	0.2	1	200	0	0	20	0	0	0
0	9	0	0	1647	0	0.2	1	200	0	0	20	0	0	0
0	9	0	0	1648	0	0.2	1	200	0	0	20	0	0	0
0	9	0	0	1649	0	0.2	1	200	0	0	20	0	0	0
0	9	0	0	1650	0	0.2	1	200	0	0	20	0	0	0
0	9	0	0	1651	0	0.2	1	200	0	0	20	0	0	0
0	9	0	0	1652	0	0.2	1	200	0	0	20	0	0	0
0	9	0	0	1653	0	0.2	1	200	0	0	20	0	0	0
0	9	0	0	1654	0	0.2	1	200	0	0	20	0	0	0
0	9	0	0	1655	0	0.2	1	200	0	0	20	0	0	0
0	9	0	0	1656	0	0.2	1	200	0	0	20	0	0	0
0	9	0	0	1379	1	0.2	1	200	0	0	0	0	0	0
0	9	0	0	1599	0	0.1	1	200	0	0	0	0	0	0
0	0.1	0	0	1613	0	0.2	1	200	0	0	20	0	0	0
0	0.1	0	0	1614	0	0.2	1	200	0	0	20	0	0	0
0	0.1	0	0	1615	0	0.2	1	200	0	0	20	0	0	0
0	0.1	0	0	1616	0	0.2	1	200	0	0	20	0	0	0
0	0.1	0	0	1617	0	0.2	1	200	0	0	20	0	0	0
0	0.1	0	0	1618	0	0.2	1	200	0	0	20	0	0	0
0	0.1	0	0	1633	0	0.2	1	200	0	0	20	0	0	0
0	0.1	0	0	1634	0	0.2	1	200	0	0	20	0	0	0
0	0.1	0	0	1635	0	0.2	1	200	0	0	20	0	0	0
0	0.1	0	0	1636	0	0.2	1	200	0	0	20	0	0	0
0	0.1	0	0	1637	0	0.1	1	200	0	0	20	0	0	0
0	0.1	0	0	1638	0	0.2	1	200	0	0	20	0	0	0
0	0.1	0	0	1639	0	0.2	1	200	0	0	20	0	0	0
0	0.1	0	0	1640	0	0.2	1	200	0	0	20	0	0	0
0	0.1	0	0	1641	0	0.2	1	200	0	0	20	0	0	0
0	0.1	0	0	1642	0	0.2	1	200	0	0	20	0	0	0
0	0.1	0	0	1643	0	0.2	1	200	0	0	20	0	0	0
0	0.1	0	0	1644	0	0.2	1	200	0	0	20	0	0	0
0	0.1	0	0	1645	0	0.2	1	200	0	0	20	0	0	0
0	0.1	0	0	1646	0	0.2	1	200	0	0	20	0	0	0
0	0.1	0	0	1647	0	0.2	1	200	0	0	20	0	0	0
0	0.1	0	0	1648	0	0.2	1	200	0	0	20	0	0	0
0	0.1	0	0	1649	0	0.2	1	200	0	0	20	0	0	0
0	0.1	0	0	1650	0	0.2	1	200	0	0	20	0	0	0
0	0.1	0	0	1651	0	0.2	1	200	0	0	20	0	0	0
0	0.1	0	0	1652	0	0.2	1	200	0	0	20	0	0	0
0	0.1	0	0	1653	0	0.2	1	200	0	0	20	0	0	0
0	0.1	0	0	1654	0	0.2	1	200	0	0	20	0	0	0
0	0.1	0	0	1655	0	0.2	1	200	0	0	20	0	0	0
0	0.1	0	0	1656	0	0.2	1	200	0	0	20	0	0	0
0	0.1	0	0	1379	1	0.2	1	200	0	0	0	0	0	0
0	0.1	0	0	1599	0	0.1	1	200	0	0	0	0	0	0
0	11	0	0	1613	0	0.2	1	200	0	0	20	0	0	0
0	11	0	0	1614	0	0.2	1	200	0	0	20	0	0	0
0	11	0	0	1615	0	0.2	1	200	0	0	20	0	0	0
0	11	0	0	1616	0	0.2	1	200	0	0	20	0	0	0
0	11	0	0	1617	0	0.2	1	200	0	0	20	0	0	0
0	11	0	0	1618	0	0.2	1	200	0	0	20	0	0	0
0	11	0	0	1633	0	0.2	1	200	0	0	20	0	0	0
0	11	0	0	1634	0	0.2	1	200	0	0	20	0	0	0
0	11	0	0	1635	0	0.2	1	200	0	0	20	0	0	0
0	11	0	0	1636	0	0.2	1	200	0	0	20	0	0	0
0	11	0	0	1637	0	0.2	1	200	0	0	20	0	0	0
0	11	0	0	1638	0	0.2	1	200	0	0	20	0	0	0
0	11	0	0	1639	0	0.2	1	200	0	0	20	0	0	0
0	11	0	0	1640	0	0.2	1	200	0	0	20	0	0	0
0	11	0	0	1641	0	0.2	1	200	0	0	20	0	0	0
0	11	0	0	1642	0	0.2	1	200	0	0	20	0	0	0
0	11	0	0	1643	0	0.2	1	200	0	0	20	0	0	0
0	11	0	0	1644	0	0.2	1	200	0	0	20	0	0	0
0	11	0	0	1645	0	0.2	1	200	0	0	20	0	0	0
0	11	0	0	1646	0	0.2	1	200	0	0	20	0	0	0
0	11	0	0	1647	0	0.2	1	200	0	0	20	0	0	0
0	11	0	0	1648	0	0.2	1	200	0	0	20	0	0	0
0	11	0	0	1649	0	0.2	1	200	0	0	20	0	0	0
0	11	0	0	1650	0	0.2	1	200	0	0	20	0	0	0
0	11	0	0	1651	0	0.2	1	200	0	0	20	0	0	0
0	11	0	0	1652	0	0.2	1	200	0	0	20	0	0	0
0	11	0	0	1653	0	0.2	1	200	0	0	20	0	0	0
0	11	0	0	1654	0	0.2	1	200	0	0	20	0	0	0
0	11	0	0	1655	0	0.2	1	200	0	0	20	0	0	0
0	11	0	0	1656	0	0.2	1	200	0	0	20	0	0	0
0	11	0	0	1379	1	0.2	1	200	0	0	0	0	0	0
0	11	0	0	1599	0	0.1	1	200	0	0	0	0	0	0
0	12	0	0	1613	0	0.2	1	200	0	0	20	0	0	0
0	12	0	0	1614	0	0.2	1	200	0	0	20	0	0	0
0	12	0	0	1615	0	0.2	1	200	0	0	20	0	0	0
0	12	0	0	1616	0	0.2	1	200	0	0	20	0	0	0
0	12	0	0	1617	0	0.2	1	200	0	0	20	0	0	0
0	12	0	0	1618	0	0.2	1	200	0	0	20	0	0	0
0	12	0	0	1633	0	0.2	1	200	0	0	20	0	0	0
0	12	0	0	1634	0	0.2	1	200	0	0	20	0	0	0
0	12	0	0	1635	0	0.2	1	200	0	0	20	0	0	0
0	12	0	0	1636	0	0.2	1	200	0	0	20	0	0	0
0	12	0	0	1637	0	0.2	1	200	0	0	20	0	0	0
0	12	0	0	1638	0	0.2	1	200	0	0	20	0	0	0
0	12	0	0	1639	0	0.2	1	200	0	0	20	0	0	0
0	12	0	0	1640	0	0.2	1	200	0	0	20	0	0	0
0	12	0	0	1641	0	0.2	1	200	0	0	20	0	0	0
0	12	0	0	1642	0	0.2	1	200	0	0	20	0	0	0
0	12	0	0	1643	0	0.2	1	200	0	0	20	0	0	0
0	12	0	0	1644	0	0.2	1	200	0	0	20	0	0	0
0	12	0	0	1645	0	0.2	1	200	0	0	20	0	0	0
0	12	0	0	1646	0	0.2	1	200	0	0	20	0	0	0
0	12	0	0	1647	0	0.2	1	200	0	0	20	0	0	0
0	12	0	0	1648	0	0.2	1	200	0	0	20	0	0	0
0	12	0	0	1649	0	0.2	1	200	0	0	20	0	0	0
0	12	0	0	1650	0	0.2	1	200	0	0	20	0	0	0
0	12	0	0	1651	0	0.2	1	200	0	0	20	0	0	0
0	12	0	0	1652	0	0.2	1	200	0	0	20	0	0	0
0	12	0	0	1653	0	0.2	1	200	0	0	20	0	0	0
0	12	0	0	1654	0	0.2	1	200	0	0	20	0	0	0
0	12	0	0	1655	0	0.2	1	200	0	0	20	0	0	0
0	12	0	0	1656	0	0.2	1	200	0	0	20	0	0	0
0	12	0	0	1379	1	0.2	1	200	0	0	0	0	0	0
0	12	0	0	1599	0	0.1	1	200	0	0	0	0	0	0
0	17	0	0	1613	0	0.2	1	200	0	0	20	0	0	0
0	17	0	0	1614	0	0.2	1	200	0	0	20	0	0	0
0	17	0	0	1615	0	0.2	1	200	0	0	20	0	0	0
0	17	0	0	1616	0	0.2	1	200	0	0	20	0	0	0
0	17	0	0	1617	0	0.2	1	200	0	0	20	0	0	0
0	17	0	0	1618	0	0.2	1	200	0	0	20	0	0	0
0	17	0	0	1633	0	0.2	1	200	0	0	20	0	0	0
0	17	0	0	1634	0	0.2	1	200	0	0	20	0	0	0
0	17	0	0	1635	0	0.2	1	200	0	0	20	0	0	0
0	17	0	0	1636	0	0.2	1	200	0	0	20	0	0	0
0	17	0	0	1637	0	0.2	1	200	0	0	20	0	0	0
0	17	0	0	1638	0	0.2	1	200	0	0	20	0	0	0
0	17	0	0	1639	0	0.2	1	200	0	0	20	0	0	0
0	17	0	0	1640	0	0.2	1	200	0	0	20	0	0	0
0	17	0	0	1641	0	0.2	1	200	0	0	20	0	0	0
0	17	0	0	1642	0	0.2	1	200	0	0	20	0	0	0
0	17	0	0	1643	0	0.2	1	200	0	0	20	0	0	0
0	17	0	0	1644	0	0.2	1	200	0	0	20	0	0	0
0	17	0	0	1645	0	0.2	1	200	0	0	20	0	0	0
0	17	0	0	1646	0	0.2	1	200	0	0	20	0	0	0
0	17	0	0	1647	0	0.2	1	200	0	0	20	0	0	0
0	17	0	0	1648	0	0.2	1	200	0	0	20	0	0	0
0	17	0	0	1649	0	0.2	1	200	0	0	20	0	0	0
0	17	0	0	1650	0	0.2	1	200	0	0	20	0	0	0
0	17	0	0	1651	0	0.2	1	200	0	0	20	0	0	0
0	17	0	0	1652	0	0.2	1	200	0	0	20	0	0	0
0	17	0	0	1653	0	0.2	1	200	0	0	20	0	0	0
0	17	0	0	1654	0	0.2	1	200	0	0	20	0	0	0
0	17	0	0	1655	0	0.2	1	200	0	0	20	0	0	0
0	17	0	0	1656	0	0.2	1	200	0	0	20	0	0	0
0	17	0	0	1379	1	0.2	1	200	0	0	0	0	0	0
0	17	0	0	1599	0	0.1	1	200	0	0	0	0	0	0